Maximize
	+ 3 x1 + 4 x3 - 3 x4 + 3 x5 + 4 x6 
Maximize
	+ 6 x1 + 6 x3 + 4 x4 + 1 x5 
Maximize
	+ 5 x3 - 4 x4 - 3 x5 + 6 x6 
Subject To
	+ 5 x1 + 4 x2 + 6 x3 + 5 x4 - 1 x5 + 4 x6 <= 9
	- 2 x1 + 2 x5 + 3 x6 <= 9
	+ 3 x3 + 3 x4 - 4 x5 <= 8
	- 3 x1 + 4 x4 - 4 x5 - 3 x6 <= 10
	+ 6 x1 + 2 x2 - 4 x3 + 5 x4 + 4 x5 <= 2
Bounds
	0 <= x1 <= 4
	0 <= x2 <= 4
	0 <= x3 <= 4
	0 <= x4 <= 4
	0 <= x5 <= 4
	0 <= x6 <= 4
Integers
	x1 x2 x3 x4 x5 x6 
End